35
2 0 3
3 0 5
3 2 1
4 0 5
4 1 1
4 3 2
5 0 4
5 2 2
5 4 5
6 0 5
6 1 5
6 4 1
6 5 3
7 0 3
7 3 2
7 5 2
7 6 5
8 3 4
8 6 5
9 1 1
9 2 5
9 5 4
9 6 1
9 7 5
9 8 5
10 3 4
10 4 2
11 1 1
11 2 3
11 7 4
11 8 5
12 1 3
12 4 1
12 6 2
12 7 1
12 8 2
12 9 1
13 0 1
13 1 5
13 4 2
13 6 2
13 7 5
13 8 2
13 9 1
13 10 3
13 11 4
14 3 5
14 8 4
14 9 3
14 11 3
15 3 2
15 4 3
15 5 5
15 10 3
15 14 4
16 0 5
16 5 1
16 6 3
16 7 1
16 8 5
16 9 1
16 10 5
16 12 2
16 13 5
16 14 5
16 15 2
17 0 4
17 3 2
17 4 2
17 5 4
17 7 3
17 12 1
17 13 5
17 15 2
17 16 1
18 2 4
18 3 3
18 4 5
18 7 4
18 9 3
18 10 2
18 11 5
18 12 2
18 15 3
18 16 3
18 17 2
19 0 3
19 4 5
19 5 2
19 6 4
19 8 5
19 9 1
19 10 5
19 14 1
19 16 2
19 17 4
19 18 4
20 0 5
20 2 1
20 4 2
20 6 3
20 7 3
20 11 3
20 12 4
20 14 5
20 15 1
20 17 3
20 19 1
21 1 5
21 2 2
21 7 5
21 9 3
21 10 5
21 11 5
21 12 5
21 14 2
21 17 2
21 19 5
22 2 3
22 3 3
22 4 1
22 6 2
22 7 4
22 10 5
22 13 5
22 14 5
22 16 1
22 17 3
22 18 3
22 19 2
22 20 2
23 2 2
23 3 4
23 4 2
23 5 2
23 6 1
23 8 2
23 9 2
23 10 3
23 11 2
23 13 3
23 14 3
23 18 5
23 21 2
24 0 5
24 3 3
24 4 4
24 5 3
24 10 3
24 11 3
24 12 1
24 15 3
24 16 2
24 20 5
24 22 3
24 23 4
25 1 4
25 3 1
25 8 5
25 10 4
25 11 3
25 12 2
25 16 5
25 18 1
25 19 1
25 21 1
25 22 2
26 0 4
26 1 3
26 2 1
26 4 3
26 6 1
26 7 2
26 9 2
26 10 3
26 11 1
26 13 2
26 14 3
26 16 2
26 18 2
26 21 4
26 23 4
26 25 3
27 0 2
27 2 1
27 5 5
27 6 4
27 7 2
27 11 1
27 12 3
27 17 2
27 18 5
27 20 4
27 21 2
27 22 1
27 23 4
27 25 2
27 26 2
28 1 5
28 2 5
28 3 4
28 4 2
28 5 4
28 6 2
28 7 1
28 8 3
28 12 4
28 14 5
28 17 1
28 18 3
28 19 4
28 23 2
28 24 2
28 25 4
29 0 3
29 1 1
29 2 3
29 4 2
29 10 3
29 12 4
29 15 3
29 16 5
29 17 1
29 20 4
29 21 2
29 25 4
29 27 2
29 28 1
30 0 3
30 3 2
30 5 4
30 7 2
30 9 3
30 11 5
30 13 5
30 21 1
30 22 5
30 24 4
30 26 2
30 27 5
30 28 1
30 29 3
31 0 5
31 1 5
31 2 1
31 6 5
31 11 3
31 14 4
31 15 2
31 16 2
31 17 2
31 19 3
31 21 3
31 23 2
31 24 1
31 25 5
31 26 4
31 27 1
31 28 5
31 29 3
31 30 4
32 0 2
32 2 4
32 3 2
32 4 3
32 5 4
32 7 3
32 11 4
32 16 2
32 18 3
32 19 3
32 20 2
32 22 2
32 23 2
32 25 3
32 30 3
33 3 5
33 5 4
33 6 1
33 8 1
33 9 4
33 12 1
33 13 5
33 16 4
33 17 3
33 18 5
33 19 5
33 21 3
33 23 2
33 24 2
33 27 5
33 28 1
33 32 4
34 3 4
34 5 4
34 8 4
34 10 4
34 11 5
34 12 5
34 13 4
34 16 1
34 17 4
34 18 1
34 20 5
34 21 4
34 23 5
34 24 4
34 27 1
34 28 4
34 33 2
